50 836
510 255 927 927 515 408 927 618 102 408 408 459 927 309 306 1030 204 515 206 309 412 309 103 412 357 412 1030 618 309 412 618 255 51 306 357 408 618 204 204 306 618 412 102 618 255 927 309 412 721 102 
310 155 747 747 415 248 747 498 62 248 248 279 747 249 186 830 124 415 166 249 332 249 83 332 217 332 830 498 249 332 498 155 31 186 217 248 498 124 124 186 498 332 62 498 155 747 249 332 581 62 
